param n := 10
;

param delta := 1.5
;

param coordX [*] :=
 0  46
 1  34
 2  55
 3  46
 4  57
 5  27
 6  13
 7   2
 8  51
 9  48
10  43
;

param coordY [*] :=
 0  31
 1  19
 2  54
 3  16
 4  42
 5  16
 6  40
 7   8
 8  35
 9  51
10  35
;